 &CONTROL
                       title = 'mapi.cif'
                 calculation = 'relax'
                restart_mode = 'from_scratch'
                      outdir = './relax-test'
                      prefix = 'mapic222-pristine'
                     disk_io = 'low'
                   verbosity = 'default'
               etot_conv_thr = 1.0e-4
               forc_conv_thr = 1.0e-3
                       nstep = 400
                     tstress = .true.
                     tprnfor = .true.
!	          max_seconds = 86300
!            dipfield =  true, tefield =   true		
/
&SYSTEM
                       ibrav = 0
                         nat = 96, ntyp = 5
                     ecutwfc = 80
!                       nbnd = 138
		       tot_charge = 0
                    vdw_corr = 'DFT-D3'
!		  edir = 3, emaxpos = 0.95, eamp = 0.0, eopreg = 0.05
!		  nspin = 2, starting_magnetization(4) = 0.25
!	noncolin = .true., lspinorb = .true., starting_magnetization(4) = 0.		   
!	nbnd = 28
		occupations = 'smearing', smearing = 'gaussian', degauss = 0.002
/
&ELECTRONS
            electron_maxstep = 200
                    conv_thr = 1.0D-7
              diago_thr_init = 1e-4
                 startingpot = 'atomic'
                 startingwfc = 'atomic+random'
                 mixing_mode = 'plain'
                 mixing_beta = 0.3
                 mixing_ndim = 8
             diagonalization = 'david'
/
&IONS
                ion_dynamics = 'bfgs'
/
ATOMIC_SPECIES
C  12.0110000000  C-nc-fr-04_pbe_standard.upf
Pb  207.2000000000  Pb-nc-sr-04_pbe_stringent.upf
I   126.9040000000  I-nc-sr-04_pbe_standard.upf
N  14.0067000000000  N-nc-fr-04_pbe_standard.upf
H  1.0078400000000  H-nc-fr-04_pbe_standard.upf


K_POINTS automatic
3 3 3 0 0 0


ATOMIC_POSITIONS  crystal
C  0.451390000000  0.499981500000  0.498167500000
N  0.068291500000  0.499913500000  0.012439000000
H  0.432254000000  0.499856500000  0.412867500000
H  0.418897000000  0.071878500000  0.035964000000
H  0.418794500000  0.428258000000  0.036191500000
H  0.103794000000  0.067137000000  0.479067000000
H  0.103696500000  0.432531500000  0.479248500000
H  0.091006500000  0.000001500000  0.092676500000
Pb  0.238085500000  0.250015500000  0.237823500000
I  0.213401500000  0.249941500000  0.486304500000
I  0.217930000000  0.000022500000  0.253271000000
I  0.481449000000  0.250113500000  0.223873500000
C  0.451390000000  0.499981500000  0.998167500000
N  0.068291500000  0.499913500000  0.512439000000
H  0.432254000000  0.499856500000  0.912867500000
H  0.418897000000  0.071878500000  0.535964000000
H  0.418794500000  0.428258000000  0.536191500000
H  0.103794000000  0.067137000000  0.979067000000
H  0.103696500000  0.432531500000  0.979248500000
H  0.091006500000  0.000001500000  0.592676500000
Pb  0.238085500000  0.250015500000  0.737823500000
I  0.213401500000  0.249941500000  0.986304500000
I  0.217930000000  0.000022500000  0.753271000000
I  0.481449000000  0.250113500000  0.723873500000
C  0.451390000000  0.999981500000  0.498167500000
N  0.068291500000  0.999913500000  0.012439000000
H  0.432254000000  0.999856500000  0.412867500000
H  0.418897000000  0.571878500000  0.035964000000
H  0.418794500000  0.928258000000  0.036191500000
H  0.103794000000  0.567137000000  0.479067000000
H  0.103696500000  0.932531500000  0.479248500000
H  0.091006500000  0.500001500000  0.092676500000
Pb  0.238085500000  0.750015500000  0.237823500000
I  0.213401500000  0.749941500000  0.486304500000
I  0.217930000000  0.500022500000  0.253271000000
I  0.481449000000  0.750113500000  0.223873500000
C  0.451390000000  0.999981500000  0.998167500000
N  0.068291500000  0.999913500000  0.512439000000
H  0.432254000000  0.999856500000  0.912867500000
H  0.418897000000  0.571878500000  0.535964000000
H  0.418794500000  0.928258000000  0.536191500000
H  0.103794000000  0.567137000000  0.979067000000
H  0.103696500000  0.932531500000  0.979248500000
H  0.091006500000  0.500001500000  0.592676500000
Pb  0.238085500000  0.750015500000  0.737823500000
I  0.213401500000  0.749941500000  0.986304500000
I  0.217930000000  0.500022500000  0.753271000000
I  0.481449000000  0.750113500000  0.723873500000
C  0.951390000000  0.499981500000  0.498167500000
N  0.568291500000  0.499913500000  0.012439000000
H  0.932254000000  0.499856500000  0.412867500000
H  0.918897000000  0.071878500000  0.035964000000
H  0.918794500000  0.428258000000  0.036191500000
H  0.603794000000  0.067137000000  0.479067000000
H  0.603696500000  0.432531500000  0.479248500000
H  0.591006500000  0.000001500000  0.092676500000
Pb  0.738085500000  0.250015500000  0.237823500000
I  0.713401500000  0.249941500000  0.486304500000
I  0.717930000000  0.000022500000  0.253271000000
I  0.981449000000  0.250113500000  0.223873500000
C  0.951390000000  0.499981500000  0.998167500000
N  0.568291500000  0.499913500000  0.512439000000
H  0.932254000000  0.499856500000  0.912867500000
H  0.918897000000  0.071878500000  0.535964000000
H  0.918794500000  0.428258000000  0.536191500000
H  0.603794000000  0.067137000000  0.979067000000
H  0.603696500000  0.432531500000  0.979248500000
H  0.591006500000  0.000001500000  0.592676500000
Pb  0.738085500000  0.250015500000  0.737823500000
I  0.713401500000  0.249941500000  0.986304500000
I  0.717930000000  0.000022500000  0.753271000000
I  0.981449000000  0.250113500000  0.723873500000
C  0.951390000000  0.999981500000  0.498167500000
N  0.568291500000  0.999913500000  0.012439000000
H  0.932254000000  0.999856500000  0.412867500000
H  0.918897000000  0.571878500000  0.035964000000
H  0.918794500000  0.928258000000  0.036191500000
H  0.603794000000  0.567137000000  0.479067000000
H  0.603696500000  0.932531500000  0.479248500000
H  0.591006500000  0.500001500000  0.092676500000
Pb  0.738085500000  0.750015500000  0.237823500000
I  0.713401500000  0.749941500000  0.486304500000
I  0.717930000000  0.500022500000  0.253271000000
I  0.981449000000  0.750113500000  0.223873500000
C  0.951390000000  0.999981500000  0.998167500000
N  0.568291500000  0.999913500000  0.512439000000
H  0.932254000000  0.999856500000  0.912867500000
H  0.918897000000  0.571878500000  0.535964000000
H  0.918794500000  0.928258000000  0.536191500000
H  0.603794000000  0.567137000000  0.979067000000
H  0.603696500000  0.932531500000  0.979248500000
H  0.591006500000  0.500001500000  0.592676500000
Pb  0.738085500000  0.750015500000  0.737823500000
I  0.713401500000  0.749941500000  0.986304500000
I  0.717930000000  0.500022500000  0.753271000000
I  0.981449000000  0.750113500000  0.723873500000

CELL_PARAMETERS  angstrom
12.552000000000  0.000000000000  0.000000000000
0.000000000000  12.552000000000  0.000000000000
0.000000000000  0.000000000000  12.552000000000
