 &CONTROL
                       title = 'mapi.cif'
                 calculation = 'relax'
                restart_mode = 'from_scratch'
                      outdir = './relax-1Br'
                      prefix = 'mapis-222-1Br'
                     disk_io = 'low'
                   verbosity = 'default'
               etot_conv_thr = 1.0e-4
               forc_conv_thr = 1.0e-3
                       nstep = 400
                     tstress = .true.
                     tprnfor = .true.
!                 max_seconds = 86300
            dipfield =  true, tefield =   true
/
&SYSTEM
                       ibrav = 0
                         nat = 396, ntyp = 6
                     ecutwfc = 80
!                       nbnd = 138
                       tot_charge = 0
                    vdw_corr = 'DFT-D3'
                 edir = 3, emaxpos = 0.95, eamp = 0.0, eopreg = 0.05
!                 nspin = 2, starting_magnetization(4) = 0.25
!       noncolin = .true., lspinorb = .true., starting_magnetization(4) = 0.
!       nbnd = 28
                occupations = 'smearing', smearing = 'gaussian', degauss = 0.01
/
&ELECTRONS
            electron_maxstep = 200
                    conv_thr = 1.0D-7
              diago_thr_init = 1e-4
                 startingpot = 'atomic'
                 startingwfc = 'atomic+random'
                 mixing_mode = 'plain'
                 mixing_beta = 0.3
                 mixing_ndim = 8
             diagonalization = 'david'
/
&IONS
                ion_dynamics = 'bfgs'
/
ATOMIC_SPECIES
C  12.0110000000  C-nc-fr-04_pbe_standard.upf
Pb  207.2000000000  Pb-nc-sr-04_pbe_stringent.upf
I   126.9040000000  I-nc-sr-04_pbe_standard.upf
N  14.0067000000000  N-nc-fr-04_pbe_standard.upf
H  1.0078400000000  H-nc-fr-04_pbe_standard.upf
Br  79.90400000000  Br-nc-fr-04_pbe_standard.upf

K_POINTS automatic
3 3 1 0 0 0


ATOMIC_POSITIONS  crystal
Pb  0.770499249801  0.750015616496  0.141261807600
Pb  0.770502574196  0.250003104601  0.141261037799
Pb  0.270502103498  0.750003244794  0.141260924400
Pb  0.270498930099  0.250015278502  0.141261702100
I  0.794886460000  0.999974698693  0.142778809400
I  0.530472688701  0.749948493399  0.145317627800
I  0.794788875399  0.499974932202  0.142776051100
I  0.530472761295  0.249846146201  0.145305397200
I  0.294788062301  0.999975020196  0.142775838000
I  0.030472952802  0.749846031494  0.145306181400
I  0.294885402201  0.499974706397  0.142778600300
I  0.030472859502  0.249948633097  0.145318386800
H  0.556620714195  0.499894858897  0.166421557000
H  0.589039813096  0.928416958500  0.275228969300
H  0.589029951297  0.571655963099  0.275227306701
H  0.902763457895  0.933427170300  0.183486926900
H  0.902873834299  0.566649303697  0.183451336099
H  0.942240789601  1.000013764699  0.294056369500
H  0.536031373495  0.500025253697  0.255714412899
H  0.595820991801  0.928210859198  0.186872735300
H  0.595916354000  0.571655980101  0.186854828800
H  0.894865410894  0.933197301200  0.275905193500
H  0.894873917395  0.566822858799  0.275942144199
H  0.937441119399  1.000095312295  0.202528028100
H  0.556736686202  -0.000097165999  0.166421708700
H  0.589040242701  0.428412024800  0.275226821300
H  0.589033651401  0.071661077400  0.275228357700
H  0.902790335795  0.433410917695  0.183458222100
H  0.902856618596  0.066670424101  0.183476138399
H  0.942386729493  0.500031034194  0.294082990599
H  0.535918507599  0.000027517998  0.255725130700
H  0.595805815702  0.428212889002  0.186868091600
H  0.595915332195  0.071653314103  0.186862490600
H  0.894877175800  0.433205523499  0.275941794400
H  0.894862243996  0.066814121203  0.275907389699
H  0.937335189593  0.500061228299  0.202508362500
H  0.056739859601  0.499902612100  0.166421927000
H  0.089039906500  0.928412050199  0.275226790100
H  0.089033321700  0.571661051595  0.275228201001
H  0.402788275701  0.933411236600  0.183458268000
H  0.402854842002  0.566669428698  0.183476192000
H  0.442386018300  1.000030954597  0.294082906300
H  0.035917138096  0.500027452996  0.255725054501
H  0.095808306197  0.928212284198  0.186868302100
H  0.095917646002  0.571653350400  0.186862755700
H  0.394877439399  0.933205444699  0.275941634499
H  0.394862550202  0.566814127298  0.275907212500
H  0.437333541896  1.000061392600  0.202508297800
H  0.056623149401  -0.000105373496  0.166421658800
H  0.089039432201  0.428416927796  0.275228828200
H  0.089029550899  0.071655912597  0.275227276100
H  0.402760377501  0.433425945698  0.183486662001
H  0.402871151802  0.066649810796  0.183451319899
H  0.442240343496  0.500013805195  0.294056219399
H  0.036030328299  0.000025266396  0.255714433700
H  0.095823139499  0.428210921897  0.186872986800
H  0.095918736999  0.071655525002  0.186854892500
H  0.394865631799  0.433197218798  0.275905012100
H  0.394874163396  0.066822832397  0.275941994300
H  0.437438759696  0.500094337295  0.202527938299
Pb  0.766459746400  0.750038459398  0.318757483699
Pb  0.768408778899  0.749998834899  0.229196358800
Pb  0.766459732896  0.250004916296  0.318757422800
Pb  0.768409578294  0.250042659103  0.229196820700
Pb  0.266459421901  0.750004925498  0.318757226700
Pb  0.268410049597  0.750042481800  0.229196709900
Pb  0.266459475200  0.250038428701  0.318757302100
Pb  0.268409229497  0.249998849900  0.229196220300
C  0.556567430001  0.499944573095  0.181633403800
C  0.546320188694  0.500029130800  0.270827097000
C  0.556600188398  -0.000056078897  0.181633622399
C  0.546297782097  0.000034230099  0.270835815799
C  0.056602656499  0.499943135499  0.181633842299
C  0.046297266204  0.500034248296  0.270835737199
C  0.056570019803  -0.000053826499  0.181633483100
C  0.046319688599  0.000029220698  0.270827124300
I  0.789028288195  0.750022034501  0.184858350000
I  0.785630914393  1.000024275000  0.323283886700
I  0.522016592295  0.750549081499  0.315852408300
I  0.783604524300  0.750023034397  0.274572959200
I  0.790817078698  1.000019541994  0.233065680799
I  0.525288451197  0.749510307898  0.227194947200
I  0.788972112796  0.250018802100  0.184858258700
I  0.784791628201  0.500024299100  0.323272968900
I  0.522016771000  0.249513042499  0.315846522500
I  0.783635119895  0.250027129299  0.274573000200
I  0.791603069901  0.500019494296  0.233072276300
I  0.525288084801  0.250481472997  0.227206360601
I  0.288974043898  0.750018750498  0.184858184800
I  0.284789773700  1.000024312700  0.323272630099
I  0.022016965097  0.749513120598  0.315845304499
I  0.283637396903  0.750027159198  0.274572872400
I  0.291601895299  1.000019377295  0.233072228300
I  0.025288428403  0.750481603900  0.227206116100
I  0.289029994999  0.250021933497  0.184858288100
I  0.285629173500  0.500024236799  0.323283539799
I  0.022016752302  0.250549066800  0.315851209100
I  0.283606700097  0.250023004896  0.274572832199
I  0.290815913497  0.500019490799  0.233065574801
I  0.025288667003  0.249510184595  0.227194711699
N  0.938630484294  0.500019665496  0.279723010499
N  0.943575598898  0.500015663401  0.188165249200
N  0.938599783194  0.000008920802  0.279694178499
N  0.943579086198  0.000034911999  0.188184947900
N  0.438600064496  0.500009110500  0.279694080799
N  0.443576419500  0.500037874395  0.188184793401
N  0.438630638796  0.000019688297  0.279722953100
N  0.443573384000  0.000014412301  0.188165167100
H  0.531620879902  0.500022653394  0.345756194100
H  0.584395874399  0.928432768300  0.455077759900
H  0.584371697701  0.571662250599  0.455072094400
H  0.891358790397  0.933161568893  0.366151254600
H  0.891334154697  0.566857505701  0.366127934400
H  0.939095464497  1.000029120993  0.474251277400
H  0.529796077296  0.500016931700  0.435696989299
H  0.585491589499  0.928438796096  0.365196667500
H  0.585482671996  0.571650675400  0.365199684500
H  0.890288453794  0.933121602800  0.456231800600
H  0.890282198496  0.566890783299  0.456241431000
H  0.939562479101  1.000029601100  0.384226882400
H  0.531680193797  0.000021753601  0.345745564200
H  0.584393577498  0.428433006102  0.455075470300
H  0.584374464997  0.071661825400  0.455074357400
H  0.891343956498  0.433157147598  0.366127241300
H  0.891348922200  0.066858910600  0.366151317900
H  0.939129559399  0.500029486401  0.474259549800
H  0.529770053196  0.000016811297  0.435701673600
H  0.585499380298  0.428440865097  0.365201945900
H  0.585473393801  0.071648862000  0.365194814800
H  0.890293821799  0.433122530301  0.456241866100
H  0.890276396998  0.066891169604  0.456231425600
H  0.939478571594  0.500023658899  0.384207436801
H  0.031680058400  0.500021682099  0.345745697400
H  0.084393931298  0.928433001099  0.455075719200
H  0.084374872701  0.571661989095  0.455074605400
H  0.391340912696  0.933157099597  0.366126462600
H  0.391345814297  0.566858845001  0.366150478400
H  0.439130209797  1.000029402900  0.474259582700
H  0.029771649404  0.500016811098  0.435701814300
H  0.085502341404  0.928440892694  0.365201779300
H  0.085476288798  0.571648850496  0.365194698699
H  0.390293546496  0.933122548298  0.456241963400
H  0.390276174699  0.566891195002  0.456231505800
H  0.439473045901  1.000023535596  0.384206863299
H  0.031620517696  0.000022759298  0.345756344000
H  0.084396273897  0.428432818602  0.455078014000
H  0.084372019698  0.071662367696  0.455072363100
H  0.391355609398  0.433161692300  0.366150443000
H  0.391331041798  0.066857388301  0.366127170099
H  0.439096174997  0.500029200200  0.474251295000
H  0.029797592999  0.000017025199  0.435697157300
H  0.085494425796  0.428438784297  0.365196567400
H  0.085485580003  0.071650601898  0.365199536500
H  0.390288232801  0.433121620096  0.456231892400
H  0.390281860398  0.066890866600  0.456241535599
H  0.439556486597  0.500029721901  0.384226268300
Pb  0.763441396099  0.750025593496  0.498573808200
Pb  0.764390691894  0.750015188596  0.408731974000
Pb  0.763441635201  0.250020251199  0.498573846500
Pb  0.764390588197  0.250029746300  0.408732066500
Pb  0.263441254297  0.750020256298  0.498573736400
Pb  0.264391391798  0.750029748698  0.408732017000
Pb  0.263440970095  0.250025593496  0.498573728800
Pb  0.264391544499  0.250015144499  0.408731921100
C  0.542556872901  0.500038084099  0.360855785600
C  0.541285737601  0.500037259800  0.450781675000
C  0.542562599901  0.000036522300  0.360846356300
C  0.541282230694  0.000036881502  0.450785814600
C  0.042564883999  0.500036552494  0.360846476100
C  0.041282983602  0.500036731199  0.450785972600
C  0.042558966098  0.000038261800  0.360855882601
C  0.041286365302  0.000037241604  0.450781845699
I  0.781283399100  0.750028163795  0.364564175500
I  0.781368289796  1.000025068197  0.503388332500
I  0.518907798200  0.750127214299  0.495360538300
I  0.780741377994  0.750025514401  0.454473306500
I  0.782531859296  1.000025101498  0.413356561200
I  0.519971145295  0.749805715400  0.405528877300
I  0.781272285994  0.250026600602  0.364564197401
I  0.781214541299  0.500025080896  0.503387473600
I  0.518907830999  0.249941358296  0.495360760700
I  0.780742154197  0.250027359700  0.454473314499
I  0.782908111796  0.500025120898  0.413359619299
I  0.519971145295  0.250260952399  0.405530770400
I  0.281263908596  0.750026685194  0.364563999700
I  0.281213168100  1.000025045898  0.503387270900
I  0.018907893698  0.749941375194  0.495359767200
I  0.280746096899  0.750027330996  0.454473186400
I  0.282909357797  1.000025092400  0.413359496300
I  0.019971246004  0.750261071400  0.405532806800
I  0.281275109202  0.250028080701  0.364564001500
I  0.281366912199  0.500025110899  0.503388112600
I  0.018907866802  0.250127195800  0.495359547300
I  0.280745363000  0.250025580900  0.454473184600
I  0.282533250899  0.500025103100  0.413356430600
I  0.019971284499  0.249805627096  0.405530934600
N  0.934299312795  0.500013108796  0.459912315600
N  0.935236910899  0.500010602000  0.369850050600
N  0.934289691396  0.000012460700  0.459903562499
N  0.935261790799  0.000014635596  0.369870636300
N  0.434289653402  0.500012378298  0.459903578300
N  0.435258258398  0.500014897801  0.369870033400
N  0.434299115496  0.000012768898  0.459912334499
N  0.435233466795  0.000010568196  0.369849513900
H  0.528851514198  0.500012031900  0.525591855700
H  0.583985345400  0.928453000295  0.634841754000
H  0.583964021101  0.571639429001  0.634838559499
H  0.889879035495  0.933144069594  0.546239722900
H  0.889861643095  0.566865845695  0.546238891400
H  0.938713580193  1.000029614596  0.654033772199
H  0.529366846202  0.500009912699  0.615458525299
H  0.583934993997  0.928444430194  0.544931484999
H  0.583916721498  0.571651351794  0.544928860899
H  0.889890181496  0.933173432700  0.636002826100
H  0.889874449700  0.566831197598  0.636001128800
H  0.939173107400  1.000028636098  0.564227428299
H  0.528843181398  0.000012740097  0.525590522100
H  0.583987627499  0.428454854199  0.634842911100
H  0.583961404801  0.071637614198  0.634837558100
H  0.889875115697  0.433144502202  0.546239960600
H  0.889866191494  0.066864011803  0.546238933799
H  0.938714437897  0.500026187700  0.654032793299
H  0.529364518095  0.000009080099  0.615457412099
H  0.583940251597  0.428443223996  0.544932957100
H  0.583911475099  0.071652961498  0.544927246800
H  0.889887692896  0.433171097996  0.636002006700
H  0.889876272198  0.066832238301  0.636001593999
H  0.939177932296  0.500031354000  0.564226695599
H  0.028842796296  0.500012776394  0.525590714600
H  0.083988094603  0.928454705999  0.634842899799
H  0.083961857900  0.571637762995  0.634837580599
H  0.389874270095  0.933144576995  0.546239544100
H  0.389865354902  0.566863792101  0.546238499099
H  0.438713168800  1.000026310397  0.654032572299
H  0.029364121003  0.500009234895  0.615457512200
H  0.083941050697  0.928443312898  0.544933033500
H  0.083912216399  0.571652881598  0.544927296500
H  0.389887386698  0.933171567698  0.636001773700
H  0.389875824700  0.566832006895  0.636001322399
H  0.439175904898  1.000031318794  0.564226348499
H  0.028851244902  0.000012139603  0.525592070299
H  0.083985692596  0.428453350295  0.634841725900
H  0.083964459302  0.071639175997  0.634838514999
H  0.389878191597  0.433144195295  0.546239304199
H  0.389860824699  0.066865647798  0.546238475500
H  0.438712199401  0.500029489699  0.654033524200
H  0.029366278603  0.000009840599  0.615458578899
H  0.083935736102  0.428444602502  0.544931535300
H  0.083917556497  0.071651303300  0.544928959300
H  0.389889464901  0.433172995200  0.636002535700
H  0.389873782499  0.066831384700  0.636000859799
H  0.439171138399  0.500028664699  0.564227106999
Pb  0.762388182999  0.750019568798  0.678044973700
Pb  0.762755359798  0.750023320001  0.588345617300
Pb  0.762388325000  0.250017711795  0.678045038399
Pb  0.762755234495  0.250019426502  0.588345568500
Pb  0.262388774299  0.750017672997  0.678044933999
Pb  0.262755170298  0.750019340699  0.588345470100
Pb  0.262388743898  0.250019653000  0.678044901200
Pb  0.262755293402  0.250023365699  0.588345544499
C  0.540721909795  0.500035014500  0.540668812400
C  0.540864937100  0.500034407999  0.630545120999
C  0.540716322996  0.000036370802  0.540667384400
C  0.540862657001  0.000033974204  0.630544015700
C  0.040716562400  0.500036438696  0.540667538600
C  0.040862690502  0.500033269400  0.630544098599
C  0.040722252497  0.000035203100  0.540668969500
C  0.040865179802  0.000035112501  0.630545172699
I  0.780434416500  0.750025984198  0.544285824300
I  0.780112499900  1.000021651195  0.683028964900
I  0.517838717198  0.750054258601  0.675010498600
I  0.779940800693  0.750020770200  0.634031028500
I  0.780313930695  1.000023435094  0.593301389999
I  0.518257226399  0.750090096500  0.585216992600
I  0.780438735199  0.250020996196  0.544285831000
I  0.780072896601  0.500021657896  0.683026860400
I  0.517838695902  0.250004783098  0.675011764200
I  0.779935341499  0.250021910600  0.634031033500
I  0.780222660298  0.500023469400  0.593298238800
I  0.518257298897  0.249975336301  0.585215813400
I  0.280435870396  0.750020987895  0.544285719900
I  0.280074261698  1.000021687397  0.683026871399
I  0.017838574902  0.750004830995  0.675013090099
I  0.279931788998  0.750021935999  0.634030919100
I  0.280223486398  1.000023460596  0.593298040100
I  0.018257214496  0.749975406098  0.585216280299
I  0.280431598200  0.250025976901  0.544285698500
I  0.280113873203  0.500021636202  0.683028988700
I  0.017838633004  0.250054302196  0.675011841500
I  0.279937139803  0.250020738596  0.634030933599
I  0.280314747497  0.500023425096  0.593301200999
I  0.018257159804  0.250090077300  0.585217473099
N  0.933913074197  0.500007117798  0.639682521600
N  0.933978595398  0.500011904900  0.549882926599
N  0.933915104001  0.000008298996  0.639683384399
N  0.933982076293  0.000010281198  0.549883441200
N  0.433914468102  0.500009462795  0.639683195200
N  0.433980898600  0.500010508796  0.549882991600
N  0.433912524300  0.000005818499  0.639682272800
N  0.433977639398  0.000011930298  0.549882538499
H  0.532091480595  0.500023845396  0.705417625299
H  0.586004511194  0.928532156996  0.814561439099
H  0.585997213297  0.571573942902  0.814559456900
H  0.890228281494  0.933250452093  0.725494637600
H  0.890217607800  0.566757359802  0.725492352000
H  0.944707144297  1.000053331000  0.834487119099
H  0.528176084900  0.500043737094  0.795439004300
H  0.584380957198  0.928483847993  0.725006889300
H  0.584358121896  0.571609048200  0.725005401499
H  0.892378025796  0.933281459399  0.816757793899
H  0.892378265901  0.566793493200  0.816757890199
H  0.936990649100  1.000016934800  0.743702113599
H  0.532106643996  0.000024311098  0.705416999200
H  0.586001652399  0.428531800997  0.814560404999
H  0.585999997396  0.071574194702  0.814560607299
H  0.890229455100  0.433251208100  0.725491274999
H  0.890215991301  0.066756785997  0.725495907300
H  0.944707495994  0.500053395699  0.834488370900
H  0.528178096101  0.000043710804  0.795440561400
H  0.584378350299  0.428482818898  0.725006527900
H  0.584361105397  0.071610003498  0.725005638999
H  0.892380849298  0.433282851998  0.816758589999
H  0.892376705695  0.066792431799  0.816757227100
H  0.936976453497  0.500019029502  0.743699734299
H  0.032107561101  0.500024301602  0.705416872999
H  0.086002727901  0.928532561195  0.814560245200
H  0.086001333398  0.571573661696  0.814560602000
H  0.390230345898  0.933251259494  0.725491696400
H  0.390216818300  0.566756892601  0.725496379300
H  0.444702146296  1.000052963194  0.834487299200
H  0.028175506203  0.500043481996  0.795441058300
H  0.084377651701  0.928482808398  0.725006568299
H  0.084360354903  0.571610234601  0.725005662100
H  0.392378592000  0.933281723094  0.816757293500
H  0.392374048095  0.566793910296  0.816755683900
H  0.436978269797  1.000019099196  0.743699992000
H  0.032092693199  0.000023905601  0.705417524999
H  0.086005827598  0.428531731200  0.814561527299
H  0.085998524100  0.071574498598  0.814559444100
H  0.390229055896  0.433250416202  0.725495125400
H  0.390218142297  0.066757831097  0.725492753700
H  0.444701028196  0.500053973997  0.834486037500
H  0.028171950403  0.000044019201  0.795439239699
H  0.084380225601  0.428484173399  0.725006911399
H  0.084357447104  0.071609066500  0.725005455699
H  0.392376676895  0.433282855495  0.816756432900
H  0.392376735101  0.066792485201  0.816756698700
H  0.436992757202  0.500016951100  0.743702485700
Pb  0.756246894498  0.750022111397  0.856200065999
Pb  0.761589464494  0.750028510800  0.767544618900
Pb  0.756246819100  0.250023759796  0.856200067900
Pb  0.761589402798  0.250034608202  0.767544598999
Pb  0.256248562001  0.750023749996  0.856200171999
Pb  0.261588415298  0.750034586899  0.767544406600
Pb  0.256248520701  0.250022047200  0.856200132700
Pb  0.261588558399  0.250028572901  0.767544419599
C  0.541774541896  0.500036401395  0.720545655499
C  0.542208163000  0.500052276897  0.810458043500
C  0.541779649202  0.000036917201  0.720545178900
C  0.542209553599  0.000050843500  0.810459309100
C  0.041779392303  0.500035955402  0.720545112399
C  0.042210106499  0.500052060095  0.810459846700
C  0.041774276202  0.000036581796  0.720545555100
C  0.042208961797  0.000050582299  0.810458439399
I  0.779273370400  0.750020837098  0.723691628900
I  0.764915189298  1.000027661194  0.861156309399
Br  0.513321920695  0.749997768097  0.851352209400
I  0.777092896301  0.750042855797  0.813388565300
I  0.781976211795  1.000036599300  0.772705117499
I  0.517813470599  0.749982653294  0.764332175599
I  0.779277140094  0.250027303199  0.723691655599
I  0.764945542198  0.500027575702  0.861158807399
I  0.513321866297  0.250029416496  0.851352453999
I  0.777091794596  0.250042559103  0.813388523400
I  0.782091166801  0.500036706597  0.772708399099
I  0.517813519500  0.250121146397  0.764331404200
I  0.279285748196  0.750027170997  0.723691528700
I  0.264951911199  1.000027615098  0.861158931499
I  0.013321584199  0.750029454099  0.851356020700
I  0.277078058195  0.750042756299  0.813388480399
I  0.282088400500  1.000036644798  0.772708199800
I  0.017813592197  0.750120950994  0.764328807699
I  0.279281953303  0.250020941400  0.723691561999
I  0.264922060999  0.500027593300  0.861156388300
I  0.013321572798  0.249997741400  0.851355757300
I  0.277079654897  0.250042657095  0.813388457199
I  0.281973488197  0.500036709800  0.772704972900
I  0.017813679100  0.249982745901  0.764329579399
N  0.936972727493  0.500039950096  0.820180811400
N  0.933872500494  0.500012067495  0.729322111500
N  0.936971758198  0.000043440496  0.820179828500
N  0.933873136098  0.000008479398  0.729324789399
N  0.436969388599  0.500040306000  0.820178967200
N  0.433874129199  0.500008740201  0.729325125700
N  0.436971152302  0.000042189500  0.820180125900
N  0.433873692599  0.000010614603  0.729322523099

CELL_PARAMETERS  angstrom
12.551999777800  0.000000000000  0.000000000000
0.000000000000  12.551999777800  0.000000000000
0.000000000000  0.000000000000  71.802635256700
